* ENCODING=ISO-8859-1
NAME          CPLEX
ROWS
 N  obj1    
 G  c1      
 G  c2      
 G  c3      
 G  c4      
 G  c5      
 G  c6      
 G  c7      
 G  c8      
 G  c9      
 G  c10     
 G  c11     
 G  c12     
 G  c13     
 G  c14     
 G  c15     
 G  c16     
 G  c17     
 G  c18     
 G  c19     
 G  c20     
 G  c21     
 G  c22     
 G  c23     
 G  c24     
 G  c25     
 G  c26     
 G  c27     
 G  c28     
 G  c29     
 G  c30     
 G  c31     
 G  c32     
 G  c33     
 G  c34     
 G  c35     
 G  c36     
 G  c37     
 G  c38     
 G  c39     
 G  c40     
 G  c41     
 G  c42     
 G  c43     
 G  c44     
 G  c45     
 G  c46     
 G  c47     
 G  c48     
 G  c49     
 G  c50     
 G  c51     
 G  c52     
 G  c53     
 G  c54     
 G  c55     
 G  c56     
 G  c57     
 G  c58     
 G  c59     
 G  c60     
 G  c61     
 G  c62     
 G  c63     
 G  c64     
 G  c65     
 G  c66     
 G  c67     
 G  c68     
 G  c69     
 G  c70     
COLUMNS
    MARK0000  'MARKER'                 'INTORG'
    x1        obj1                            1
    x1        c40                           275
    x1        c46                           470
    x1        c52                           831
    x1        c57                           438
    x1        c65                           484
    x1        c66                           108
    x1        c69                           847
    x2        obj1                            1
    x2        c2                            527
    x2        c13                           885
    x2        c17                           844
    x2        c24                           402
    x2        c25                           202
    x2        c35                           687
    x2        c47                           523
    x2        c59                           326
    x2        c62                           117
    x2        c64                           106
    x3        obj1                            1
    x3        c6                            533
    x3        c13                           311
    x3        c14                           274
    x3        c49                           334
    x3        c65                           130
    x3        c70                           843
    x4        obj1                            1
    x4        c16                           311
    x4        c29                           439
    x4        c31                           741
    x4        c45                           616
    x4        c60                           936
    x5        obj1                            1
    x5        c1                            385
    x5        c7                            747
    x5        c10                           316
    x5        c21                           700
    x5        c31                           194
    x5        c34                           433
    x5        c45                           766
    x5        c51                           706
    x5        c63                           712
    x5        c68                           558
    x5        c70                           796
    x6        obj1                            1
    x6        c3                            846
    x6        c5                            621
    x6        c30                           718
    x6        c33                           110
    x6        c41                           849
    x6        c52                           940
    x6        c57                           875
    x6        c59                           514
    x6        c64                           881
    x6        c65                           952
    x7        obj1                            1
    x7        c3                            685
    x7        c6                            892
    x7        c17                           175
    x7        c45                           933
    x7        c50                           485
    x8        obj1                            1
    x8        c1                            315
    x8        c19                           649
    x8        c27                           918
    x8        c34                           708
    x8        c49                           950
    x8        c51                           174
    x9        obj1                            1
    x9        c2                            467
    x9        c6                            305
    x9        c11                           992
    x9        c35                           116
    x9        c43                           304
    x9        c54                           159
    x9        c57                           312
    x10       obj1                            1
    x10       c7                            555
    x10       c8                            818
    x10       c36                           527
    x10       c56                           696
    x10       c66                           473
    x11       obj1                            1
    x11       c15                           362
    x11       c20                           825
    x11       c37                           887
    x11       c54                           645
    x11       c68                           678
    x11       c69                           236
    x12       obj1                            1
    x12       c3                            373
    x12       c4                            479
    x12       c7                            994
    x12       c21                           850
    x12       c34                           631
    x12       c41                           813
    x12       c69                           326
    x13       obj1                            1
    x13       c7                            401
    x13       c11                           170
    x13       c21                           412
    x13       c22                           130
    x13       c25                           272
    x13       c36                           220
    x13       c53                           357
    x13       c57                           702
    x13       c67                           124
    x13       c68                           569
    x13       c69                           426
    x13       c70                           589
    x14       obj1                            1
    x14       c46                           382
    x14       c48                           642
    x14       c58                           692
    x14       c69                           566
    x14       c70                           220
    x15       obj1                            1
    x15       c7                            640
    x15       c36                           801
    x15       c43                           860
    x15       c64                           322
    x15       c70                           399
    x16       obj1                            1
    x16       c20                           343
    x16       c21                           794
    x16       c32                           573
    x16       c38                           713
    x16       c50                           361
    x16       c53                           343
    x16       c56                           701
    x16       c59                           189
    x16       c68                           425
    x17       obj1                            1
    x17       c4                            937
    x17       c11                           313
    x17       c22                           458
    x17       c31                           789
    x17       c42                           833
    x17       c59                           802
    x18       obj1                            1
    x18       c2                            974
    x18       c8                            625
    x18       c15                           703
    x18       c28                           112
    x18       c33                           310
    x18       c42                           242
    x18       c56                           473
    x18       c61                           437
    x18       c66                           985
    x19       obj1                            1
    x19       c4                            603
    x19       c32                           163
    x19       c33                           270
    x19       c36                           273
    x19       c44                           787
    x19       c45                           426
    x19       c47                           399
    x19       c52                           288
    x19       c58                           315
    x19       c63                           599
    x19       c64                           999
    x20       obj1                            1
    x20       c1                            812
    x20       c6                            406
    x20       c19                           950
    x20       c25                           434
    x20       c28                           696
    x21       obj1                            1
    x21       c5                            618
    x21       c16                           127
    x21       c22                           196
    x21       c30                           651
    x21       c32                           706
    x21       c36                           477
    x21       c38                           587
    x21       c41                           597
    x21       c48                           389
    x21       c53                           426
    x22       obj1                            1
    x22       c8                            218
    x22       c11                           874
    x22       c12                           951
    x22       c19                           185
    x22       c23                           943
    x22       c25                           758
    x22       c26                           910
    x22       c29                           927
    x22       c39                           601
    x22       c49                           652
    x22       c59                           324
    x22       c69                           203
    x23       obj1                            1
    x23       c9                            108
    x23       c26                           777
    x23       c35                           136
    x23       c38                           240
    x23       c43                           302
    x23       c56                           247
    x23       c64                           837
    x24       obj1                            1
    x24       c7                            824
    x24       c35                           145
    x24       c51                           760
    x24       c61                           274
    x24       c66                           455
    x25       obj1                            1
    x25       c3                            830
    x25       c17                           979
    x25       c18                           440
    x25       c30                           618
    x25       c36                           788
    x25       c61                           543
    x26       obj1                            1
    x26       c1                            591
    x26       c3                            285
    x26       c11                           923
    x26       c37                           799
    x26       c52                           783
    x27       obj1                            1
    x27       c24                           690
    x27       c29                           303
    x27       c32                           153
    x27       c37                           556
    x27       c43                           163
    x27       c50                           738
    x27       c52                           375
    x28       obj1                            1
    x28       c24                           446
    x28       c29                           651
    x28       c50                           841
    x28       c51                           711
    x28       c53                           153
    x28       c55                           723
    x28       c66                           920
    x29       obj1                            1
    x29       c21                           179
    x29       c33                           157
    x29       c45                           323
    x29       c55                           270
    x29       c59                           814
    x30       obj1                            1
    x30       c3                            945
    x30       c10                           827
    x30       c14                           185
    x30       c25                           755
    x30       c27                           215
    x30       c44                           396
    x30       c55                           400
    x31       obj1                            1
    x31       c9                            620
    x31       c34                           553
    x31       c40                           865
    x31       c42                           188
    x31       c44                           503
    x31       c53                           153
    x31       c56                           470
    x32       obj1                            1
    x32       c18                           405
    x32       c31                           488
    x32       c48                           706
    x32       c63                           574
    x32       c69                           965
    x33       obj1                            1
    x33       c4                            890
    x33       c10                           324
    x33       c13                           293
    x33       c23                           736
    x33       c31                           837
    x33       c61                           844
    x33       c67                           961
    x33       c70                           288
    x34       obj1                            1
    x34       c3                            973
    x34       c12                           786
    x34       c21                           729
    x34       c32                           281
    x34       c40                           379
    x34       c47                           161
    x34       c59                           694
    x34       c60                           470
    x34       c70                           452
    x35       obj1                            1
    x35       c8                            870
    x35       c23                           233
    x35       c31                           601
    x35       c33                           582
    x35       c37                           580
    x35       c59                           147
    x35       c60                           155
    x35       c68                           373
    x36       obj1                            1
    x36       c2                            911
    x36       c19                           255
    x36       c36                           392
    x36       c43                           854
    x36       c52                           677
    x37       obj1                            1
    x37       c5                            413
    x37       c25                           784
    x37       c33                           811
    x37       c41                           425
    x37       c43                           782
    x37       c47                           734
    x37       c58                           487
    x37       c59                           122
    x37       c66                           394
    x38       obj1                            1
    x38       c43                           342
    x38       c49                           220
    x38       c54                           874
    x38       c65                           343
    x38       c66                           269
    x39       obj1                            1
    x39       c2                            430
    x39       c23                           111
    x39       c30                           618
    x39       c52                           588
    x39       c61                           488
    x40       obj1                            1
    x40       c4                            737
    x40       c12                           611
    x40       c40                           731
    x40       c46                           136
    x40       c57                           345
    x40       c66                           210
    x40       c70                           388
    x41       obj1                            1
    x41       c1                            552
    x41       c5                            882
    x41       c10                           759
    x41       c15                           194
    x41       c16                           597
    x41       c28                           697
    x41       c29                           720
    x41       c34                           913
    x41       c49                           725
    x41       c53                          1000
    x41       c63                           978
    x41       c67                           991
    x42       obj1                            1
    x42       c2                            788
    x42       c13                           883
    x42       c30                           201
    x42       c37                           989
    x42       c52                           398
    x42       c54                           692
    x42       c67                           404
    x43       obj1                            1
    x43       c3                            982
    x43       c6                            853
    x43       c20                           915
    x43       c23                           509
    x43       c25                           205
    x43       c35                           452
    x43       c45                           566
    x43       c46                           301
    x43       c60                           704
    x43       c68                           144
    x44       obj1                            1
    x44       c5                            594
    x44       c27                           591
    x44       c38                           288
    x44       c54                           384
    x44       c67                           691
    x45       obj1                            1
    x45       c4                            897
    x45       c12                           150
    x45       c23                           801
    x45       c29                           857
    x45       c42                           648
    x45       c51                           936
    x45       c52                           168
    x45       c61                           591
    x45       c63                           380
    x45       c64                           584
    x46       obj1                            1
    x46       c10                           973
    x46       c15                           463
    x46       c18                           451
    x46       c20                           724
    x46       c27                           747
    x46       c28                           814
    x46       c39                           710
    x46       c56                           614
    x46       c62                           943
    x46       c69                           629
    x46       c70                           884
    x47       obj1                            1
    x47       c1                            115
    x47       c14                           509
    x47       c31                           453
    x47       c38                           401
    x47       c44                           521
    x47       c51                           196
    x47       c52                           554
    x48       obj1                            1
    x48       c2                            413
    x48       c37                           520
    x49       obj1                            1
    x49       c19                           824
    x49       c20                           189
    x49       c24                           461
    x49       c32                           400
    x49       c33                           943
    x49       c41                           166
    x49       c61                           643
    x49       c67                           767
    x50       obj1                            1
    x50       c3                            911
    x50       c9                            406
    x50       c10                           435
    x50       c15                           648
    x50       c20                           862
    x50       c27                           263
    x50       c55                           981
    x50       c56                           761
    x50       c60                           480
    x50       c62                           549
    x50       c63                           429
    x50       c65                           798
    x50       c67                           214
    x51       obj1                            1
    x51       c26                           880
    x51       c29                           946
    x51       c38                           458
    x51       c39                           131
    x51       c45                           460
    x51       c49                           483
    x51       c51                           714
    x51       c66                           940
    x52       obj1                            1
    x52       c2                            586
    x52       c9                            740
    x52       c13                           579
    x52       c16                           153
    x52       c27                           389
    x52       c33                           117
    x52       c34                           485
    x52       c46                           276
    x52       c53                           185
    x52       c58                           499
    x52       c67                           162
    x53       obj1                            1
    x53       c1                            428
    x53       c19                           425
    x53       c34                           413
    x53       c35                           771
    x53       c46                           686
    x53       c61                           906
    x54       obj1                            1
    x54       c4                            782
    x54       c46                           911
    x54       c63                           184
    x54       c65                           817
    x54       c68                           208
    x55       obj1                            1
    x55       c26                           672
    x55       c45                           205
    x56       obj1                            1
    x56       c1                            902
    x56       c20                           814
    x56       c30                           628
    x56       c32                           288
    x56       c34                           624
    x56       c61                           430
    x57       obj1                            1
    x57       c6                            958
    x57       c11                           706
    x57       c27                           990
    x57       c31                           425
    x57       c33                           889
    x57       c39                           322
    x57       c40                           360
    x57       c42                           895
    x57       c43                           438
    x58       obj1                            1
    x58       c4                            271
    x58       c56                           607
    x58       c58                           239
    x59       obj1                            1
    x59       c27                           474
    x59       c62                           921
    x59       c67                           124
    x60       obj1                            1
    x60       c9                            554
    x60       c11                           329
    x60       c15                           255
    x60       c17                           480
    x60       c27                           122
    x60       c29                           875
    x60       c37                           767
    x60       c39                           739
    x60       c40                           925
    x60       c68                           225
    x60       c69                           208
    x61       obj1                            1
    x61       c12                           716
    x61       c31                           653
    x61       c37                           300
    x61       c46                           548
    x61       c49                           680
    x61       c51                           518
    x61       c53                           470
    x61       c68                           590
    x61       c70                           121
    x62       obj1                            1
    x62       c1                            315
    x62       c4                            526
    x62       c11                           153
    x62       c36                           695
    x62       c44                           557
    x62       c49                           889
    x63       obj1                            1
    x63       c8                            612
    x63       c28                           131
    x63       c44                           824
    x63       c53                           949
    x63       c64                           752
    x63       c65                           999
    x64       obj1                            1
    x64       c1                            564
    x64       c5                            485
    x64       c10                           370
    x64       c30                           244
    x64       c36                           182
    x64       c44                           575
    x65       obj1                            1
    x65       c17                           980
    x65       c18                           694
    x65       c19                           595
    x65       c28                           303
    x65       c35                           901
    x65       c62                           560
    x66       obj1                            1
    x66       c29                           573
    x66       c41                           817
    x67       obj1                            1
    x67       c9                            922
    x67       c18                           653
    x67       c28                           140
    x67       c37                           515
    x68       obj1                            1
    x68       c4                            405
    x68       c18                           799
    x68       c25                           829
    x68       c27                           420
    x68       c33                           333
    x68       c44                           776
    x68       c48                           389
    x68       c53                           906
    x68       c68                           174
    x69       obj1                            1
    x69       c14                           805
    x69       c16                           751
    x69       c18                           478
    x69       c22                           463
    x69       c29                           980
    x69       c45                           786
    x69       c46                           204
    x69       c49                           832
    x69       c50                           208
    x69       c61                           533
    x69       c66                           931
    x70       obj1                            1
    x70       c18                           523
    x70       c37                           604
    x70       c45                           306
    x70       c55                           213
    MARK0001  'MARKER'                 'INTEND'
RHS
    rhs       c1                           2490
    rhs       c2                           2548
    rhs       c3                           3415
    rhs       c4                           3264
    rhs       c5                           1807
    rhs       c6                           1974
    rhs       c7                           2081
    rhs       c8                           1572
    rhs       c9                           1675
    rhs       c10                          2002
    rhs       c11                          2230
    rhs       c12                          1607
    rhs       c13                          1476
    rhs       c14                           887
    rhs       c15                          1313
    rhs       c16                           970
    rhs       c17                          1729
    rhs       c18                          2222
    rhs       c19                          1942
    rhs       c20                          2336
    rhs       c21                          1832
    rhs       c22                           624
    rhs       c23                          1667
    rhs       c24                          1000
    rhs       c25                          2120
    rhs       c26                          1620
    rhs       c27                          2565
    rhs       c28                          1447
    rhs       c29                          3636
    rhs       c30                          1839
    rhs       c31                          2591
    rhs       c32                          1282
    rhs       c33                          2261
    rhs       c34                          2380
    rhs       c35                          1604
    rhs       c36                          2178
    rhs       c37                          3259
    rhs       c38                          1344
    rhs       c39                          1252
    rhs       c40                          1768
    rhs       c41                          1834
    rhs       c42                          1403
    rhs       c43                          2023
    rhs       c44                          2470
    rhs       c45                          2694
    rhs       c46                          1957
    rhs       c47                           909
    rhs       c48                          1063
    rhs       c49                          2883
    rhs       c50                          1317
    rhs       c51                          2358
    rhs       c52                          2801
    rhs       c53                          2471
    rhs       c54                          1377
    rhs       c55                          1294
    rhs       c56                          2285
    rhs       c57                          1336
    rhs       c58                          1116
    rhs       c59                          1966
    rhs       c60                          1373
    rhs       c61                          2845
    rhs       c62                          1545
    rhs       c63                          1928
    rhs       c64                          2241
    rhs       c65                          2262
    rhs       c66                          2843
    rhs       c67                          2219
    rhs       c68                          1972
    rhs       c69                          2203
    rhs       c70                          2490
BOUNDS
 LI bnd       x1        0
 LI bnd       x2        0
 LI bnd       x3        0
 LI bnd       x4        0
 LI bnd       x5        0
 LI bnd       x6        0
 LI bnd       x7        0
 LI bnd       x8        0
 LI bnd       x9        0
 LI bnd       x10       0
 LI bnd       x11       0
 LI bnd       x12       0
 LI bnd       x13       0
 LI bnd       x14       0
 LI bnd       x15       0
 LI bnd       x16       0
 LI bnd       x17       0
 LI bnd       x18       0
 LI bnd       x19       0
 LI bnd       x20       0
 LI bnd       x21       0
 LI bnd       x22       0
 LI bnd       x23       0
 LI bnd       x24       0
 LI bnd       x25       0
 LI bnd       x26       0
 LI bnd       x27       0
 LI bnd       x28       0
 LI bnd       x29       0
 LI bnd       x30       0
 LI bnd       x31       0
 LI bnd       x32       0
 LI bnd       x33       0
 LI bnd       x34       0
 LI bnd       x35       0
 LI bnd       x36       0
 LI bnd       x37       0
 LI bnd       x38       0
 LI bnd       x39       0
 LI bnd       x40       0
 LI bnd       x41       0
 LI bnd       x42       0
 LI bnd       x43       0
 LI bnd       x44       0
 LI bnd       x45       0
 LI bnd       x46       0
 LI bnd       x47       0
 LI bnd       x48       0
 LI bnd       x49       0
 LI bnd       x50       0
 LI bnd       x51       0
 LI bnd       x52       0
 LI bnd       x53       0
 LI bnd       x54       0
 LI bnd       x55       0
 LI bnd       x56       0
 LI bnd       x57       0
 LI bnd       x58       0
 LI bnd       x59       0
 LI bnd       x60       0
 LI bnd       x61       0
 LI bnd       x62       0
 LI bnd       x63       0
 LI bnd       x64       0
 LI bnd       x65       0
 LI bnd       x66       0
 LI bnd       x67       0
 LI bnd       x68       0
 LI bnd       x69       0
 LI bnd       x70       0
ENDATA
